p cnf 88 375
1 2 3 0
-1 -2 0
-1 -3 0
-2 -3 0
4 5 6 0
-4 -5 0
-4 -6 0
-5 -6 0
7 8 9 0
-7 -8 0
-7 -9 0
-8 -9 0
10 11 12 0
-10 -11 0
-10 -12 0
-11 -12 0
13 14 15 0
-13 -14 0
-13 -15 0
-14 -15 0
16 17 18 0
-16 -17 0
-16 -18 0
-17 -18 0
19 20 21 0
-19 -20 0
-19 -21 0
-20 -21 0
22 23 24 0
-22 -23 0
-22 -24 0
-23 -24 0
25 26 0
-25 -26 0
27 28 29 0
-27 -28 0
-27 -29 0
-28 -29 0
30 31 32 0
-30 -31 0
-30 -32 0
-31 -32 0
33 34 35 0
-33 -34 0
-33 -35 0
-34 -35 0
36 37 38 0
-36 -37 0
-36 -38 0
-37 -38 0
39 40 41 0
-39 -40 0
-39 -41 0
-40 -41 0
42 43 44 0
-42 -43 0
-42 -44 0
-43 -44 0
45 46 47 0
-45 -46 0
-45 -47 0
-46 -47 0
48 49 50 0
-48 -49 0
-48 -50 0
-49 -50 0
51 52 0
-51 -52 0
53 54 55 0
-53 -54 0
-53 -55 0
-54 -55 0
56 57 58 0
-56 -57 0
-56 -58 0
-57 -58 0
59 60 61 0
-59 -60 0
-59 -61 0
-60 -61 0
62 63 64 0
-62 -63 0
-62 -64 0
-63 -64 0
65 66 67 0
-65 -66 0
-65 -67 0
-66 -67 0
68 69 70 0
-68 -69 0
-68 -70 0
-69 -70 0
71 72 73 0
-71 -72 0
-71 -73 0
-72 -73 0
74 75 76 0
-74 -75 0
-74 -76 0
-75 -76 0
77 78 79 0
-77 -78 0
-77 -79 0
-78 -79 0
80 81 82 0
-80 -81 0
-80 -82 0
-81 -82 0
83 84 85 0
-83 -84 0
-83 -85 0
-84 -85 0
86 87 88 0
-86 -87 0
-86 -88 0
-87 -88 0
-1 -7 0
-2 -8 0
-3 -9 0
-1 -10 0
-2 -11 0
-3 -12 0
-1 -16 0
-2 -17 0
-3 -18 0
-1 -27 0
-2 -28 0
-3 -29 0
-1 -36 0
-2 -37 0
-3 -38 0
-1 -39 0
-2 -40 0
-3 -41 0
-1 -42 0
-2 -43 0
-3 -44 0
-1 -53 0
-2 -54 0
-3 -55 0
-1 -65 0
-2 -66 0
-3 -67 0
-1 -68 0
-2 -69 0
-3 -70 0
-4 -36 0
-5 -37 0
-6 -38 0
-4 -77 0
-5 -78 0
-6 -79 0
-4 -80 0
-5 -81 0
-6 -82 0
-4 -83 0
-5 -84 0
-6 -85 0
-4 -86 0
-5 -87 0
-6 -88 0
-7 -19 0
-8 -20 0
-9 -21 0
-7 -27 0
-8 -28 0
-9 -29 0
-7 -33 0
-8 -34 0
-9 -35 0
-7 -36 0
-8 -37 0
-9 -38 0
-7 -45 0
-8 -46 0
-9 -47 0
-7 -51 0
-8 -52 0
-7 -65 0
-8 -66 0
-9 -67 0
-7 -80 0
-8 -81 0
-9 -82 0
-10 -16 0
-11 -17 0
-12 -18 0
-10 -22 0
-11 -23 0
-12 -24 0
-10 -45 0
-11 -46 0
-12 -47 0
-10 -53 0
-11 -54 0
-12 -55 0
-10 -77 0
-11 -78 0
-12 -79 0
-13 -51 0
-14 -52 0
-13 -59 0
-14 -60 0
-15 -61 0
-13 -65 0
-14 -66 0
-15 -67 0
-13 -68 0
-14 -69 0
-15 -70 0
-13 -77 0
-14 -78 0
-15 -79 0
-13 -83 0
-14 -84 0
-15 -85 0
-13 -86 0
-14 -87 0
-15 -88 0
-16 -19 0
-17 -20 0
-18 -21 0
-16 -22 0
-17 -23 0
-18 -24 0
-16 -27 0
-17 -28 0
-18 -29 0
-16 -51 0
-17 -52 0
-19 -59 0
-20 -60 0
-21 -61 0
-19 -77 0
-20 -78 0
-21 -79 0
-19 -80 0
-20 -81 0
-21 -82 0
-19 -83 0
-20 -84 0
-21 -85 0
-19 -86 0
-20 -87 0
-21 -88 0
-22 -25 0
-23 -26 0
-22 -36 0
-23 -37 0
-24 -38 0
-22 -42 0
-23 -43 0
-24 -44 0
-22 -48 0
-23 -49 0
-24 -50 0
-22 -51 0
-23 -52 0
-22 -77 0
-23 -78 0
-24 -79 0
-25 -51 0
-26 -52 0
-25 -59 0
-26 -60 0
-27 -30 0
-28 -31 0
-29 -32 0
-27 -42 0
-28 -43 0
-29 -44 0
-27 -65 0
-28 -66 0
-29 -67 0
-27 -80 0
-28 -81 0
-29 -82 0
-30 -45 0
-31 -46 0
-32 -47 0
-30 -71 0
-31 -72 0
-32 -73 0
-30 -80 0
-31 -81 0
-32 -82 0
-30 -83 0
-31 -84 0
-32 -85 0
-33 -51 0
-34 -52 0
-36 -59 0
-37 -60 0
-38 -61 0
-36 -68 0
-37 -69 0
-38 -70 0
-39 -42 0
-40 -43 0
-41 -44 0
-39 -53 0
-40 -54 0
-41 -55 0
-39 -56 0
-40 -57 0
-41 -58 0
-39 -59 0
-40 -60 0
-41 -61 0
-39 -62 0
-40 -63 0
-41 -64 0
-39 -71 0
-40 -72 0
-41 -73 0
-39 -86 0
-40 -87 0
-41 -88 0
-42 -86 0
-43 -87 0
-44 -88 0
-45 -53 0
-46 -54 0
-47 -55 0
-45 -59 0
-46 -60 0
-47 -61 0
-45 -62 0
-46 -63 0
-47 -64 0
-45 -77 0
-46 -78 0
-47 -79 0
-45 -83 0
-46 -84 0
-47 -85 0
-48 -59 0
-49 -60 0
-50 -61 0
-48 -80 0
-49 -81 0
-50 -82 0
-51 -53 0
-52 -54 0
-51 -68 0
-52 -69 0
-51 -71 0
-52 -72 0
-53 -77 0
-54 -78 0
-55 -79 0
-53 -80 0
-54 -81 0
-55 -82 0
-62 -65 0
-63 -66 0
-64 -67 0
-62 -71 0
-63 -72 0
-64 -73 0
-65 -86 0
-66 -87 0
-67 -88 0
-68 -74 0
-69 -75 0
-70 -76 0
-68 -77 0
-69 -78 0
-70 -79 0
-74 -77 0
-75 -78 0
-76 -79 0
-74 -80 0
-75 -81 0
-76 -82 0
